6920
129,27,31,145,64,112,136,123,74,13,106,91,119,68,128,45,4,104,150,115,71,44,21,78,79,121,88,125,22,149,62,3,94,10,113,63,48,73,76,87,34,30,84,7,103,98,1,82,95,107,5,100,143,97,124,8,89,96,35,93,126,52,33,92,54,46,138,134,109,51,20,47,110,81,29,86,108,70,135,50,55,58,141,25,90,83,56,146,26,75,18,142,85,65,132,137,102,114,99,19,2,37,6,28,9,42,120,139,40,53,12,24,118,127,69,36,61,11,148,130,17,66,60,140,117,57,39,41,101,116,43,67,38,23,32,131,77,133,105,111,16,59,15,122,14,80,72,49,147,144,129
